H N O Rh
1.0
  8.000000000000   0.000000000000   0.000000000000
 -4.000000000000   6.930000000000   0.000000000000
  0.000000000000   0.000000000000  20.891500000000
H N O Rh
  2   1   1  36
Selective dynamics
Direct
  0.247547741855   0.498129735316   0.527209646098  T T T
  0.534384045076   0.472627770279   0.532147125867  T T T
  0.483864773804   0.511790591083   0.493135201967  T T T
  0.379713912221   0.607779855273   0.521076482413  T T T
  0.000197970276   0.000244747471   0.105597463659  T T T
  0.333564111765   0.000230565474   0.105597598780  T T T
  0.666772200380   0.000185881857   0.105615706121  T T T
  0.000248922897   0.333614132422   0.105601934919  T T T
  0.333546847420   0.333559869466   0.105600364824  T T T
  0.666802692546   0.333494040515   0.105632254020  T T T
  0.000207058041   0.666854787805   0.105593884090  T T T
  0.333498726516   0.666840236984   0.105629647259  T T T
  0.666740159238   0.666774111639   0.105612144250  T T T
  0.111545578423   0.221205558457   0.209679315334  T T T
  0.443430168874   0.221558875825   0.209793455063  T T T
  0.777966972775   0.222406959224   0.209055683220  T T T
  0.111640324655   0.556208532792   0.209513629179  T T T
  0.444644169515   0.555274116488   0.209251585281  T T T
  0.778859084953   0.556806157937   0.209754141315  T T T
  0.111877640449   0.888417368940   0.207187980761  T T T
  0.444034142412   0.888611341388   0.209534505223  T T T
  0.779122726107   0.888663937581   0.209654864801  T T T
  0.222269208583   0.112968171558   0.313192640671  T T T
  0.555743800523   0.111290149504   0.311382068943  T T T
  0.888919602405   0.111394191253   0.311417236847  T T T
  0.222848297153   0.444305501604   0.311720245301  T T T
  0.555847497515   0.445300954488   0.311403359884  T T T
  0.889460163898   0.445113209122   0.311388887959  T T T
  0.222596687155   0.778002852861   0.312622343646  T T T
  0.556107904686   0.777581959453   0.311576508987  T T T
  0.887454620815   0.777995089808   0.313434694371  T T T
  0.999564787029   0.001285400168   0.415899667706  T T T
  0.333063371482   0.000694262863   0.415283866212  T T T
  0.668954623172   0.002008519044   0.415253936328  T T T
  0.999198614099   0.332290240836   0.415462800148  T T T
  0.337738847442   0.330959858929   0.419702650974  T T T
  0.672035713785   0.329362989063   0.414896536168  T T T
  0.999601409584   0.666530951992   0.415374463450  T T T
  0.329705471693   0.673903347070   0.415826514944  T T T
  0.666340681112   0.664004376208   0.420267135630  T T T
