H N O Rh
1.0
  8.000000000000   0.000000000000   0.000000000000
 -4.000000000000   6.930000000000   0.000000000000
  0.000000000000   0.000000000000  20.891500000000
H N O Rh
  2   1   1  36
Selective dynamics
Direct
  0.214160232951   0.506660521451   0.529218738526  T T T
  0.538613479542   0.466722692428   0.531202085753  T T T
  0.498471905742   0.498391611073   0.489309613093  T T T
  0.331625865825   0.603881431174   0.513261459575  T T T
  0.000443591779   0.000761998513   0.105595771857  T T T
  0.333809733268   0.000747816516   0.105595906978  T T T
  0.667017821883   0.000703132899   0.105614014319  T T T
  0.000494544400   0.334131383464   0.105600243117  T T T
  0.333792468923   0.334077120508   0.105598673022  T T T
  0.667048314049   0.334011291557   0.105630562218  T T T
  0.000452679544   0.667372038847   0.105592192288  T T T
  0.333744348019   0.667357488026   0.105627955457  T T T
  0.666985780741   0.667291362681   0.105610452448  T T T
  0.111429234267   0.221641908272   0.209670689229  T T T
  0.443731239541   0.222031151277   0.209660569893  T T T
  0.778093706398   0.222611689304   0.209172884253  T T T
  0.111591987931   0.556349993277   0.209295363007  T T T
  0.444997538300   0.556139715302   0.209325214410  T T T
  0.778932955293   0.557357946328   0.209729533015  T T T
  0.111577192194   0.889004369507   0.207456395957  T T T
  0.444629261363   0.889177750912   0.209357693678  T T T
  0.778991602288   0.889097060300   0.209301528208  T T T
  0.222568056723   0.113160211034   0.312875383225  T T T
  0.555828936195   0.111824400326   0.311441873907  T T T
  0.889265573724   0.112216729134   0.311744547145  T T T
  0.223015955382   0.444817311463   0.311674045395  T T T
  0.555892788586   0.445512730002   0.311189339825  T T T
  0.889351859627   0.445419472421   0.311408651315  T T T
  0.222661460661   0.778424715068   0.312077102175  T T T
  0.555661595606   0.777732391964   0.312062187652  T T T
  0.887956453941   0.778040018145   0.313523709974  T T T
  0.999900469853   0.001564094383   0.415890429191  T T T
  0.333205728308   0.000977900922   0.415012852472  T T T
  0.668592841524   0.002178289425   0.415375301133  T T T
  0.998653467363   0.331458793329   0.415832149130  T T T
  0.336188559877   0.331023147824   0.419642670246  T T T
  0.671009344127   0.329835090533   0.415781675535  T T T
  0.000328833796   0.668145236409   0.415473544850  T T T
  0.331014701251   0.673770420370   0.416023984283  T T T
  0.666843795041   0.665872621603   0.420236213484  T T T
