H N O Rh
1.0
  8.000000000000   0.000000000000   0.000000000000
 -4.000000000000   6.930000000000   0.000000000000
  0.000000000000   0.000000000000  20.891500000000
H N O Rh
  2   1   1  36
Selective dynamics
Direct
  0.113915812928   0.565786880371   0.533204818010  T T T
  0.554400693196   0.444489919730   0.526012059514  T T T
  0.555708358788   0.446284538928   0.476922050049  T T T
  0.112444294345   0.560048343085   0.486685560706  T T T
  0.001426077789   0.002831002679   0.105589004647  T T T
  0.334792219278   0.002816820682   0.105589139768  T T T
  0.668000307893   0.002772137065   0.105607247109  T T T
  0.001477030410   0.336200387630   0.105593475907  T T T
  0.334774954933   0.336146124674   0.105591905812  T T T
  0.668030800059   0.336080295723   0.105623795008  T T T
  0.001435165554   0.669441043013   0.105585425078  T T T
  0.334726834029   0.669426492192   0.105621188247  T T T
  0.667968266751   0.669360366847   0.105603685238  T T T
  0.110933573669   0.223342879026   0.209633743847  T T T
  0.444993572624   0.223941140296   0.209140244245  T T T
  0.778567586071   0.223390281133   0.209640013975  T T T
  0.111402755358   0.556793662384   0.208422366808  T T T
  0.446392060901   0.559521313372   0.209638929483  T T T
  0.779205857924   0.559479455230   0.209631176250  T T T
  0.110400855011   0.891303888368   0.208661258907  T T T
  0.447011316713   0.891369727041   0.208656111372  T T T
  0.778438542949   0.890782330648   0.207823719999  T T T
  0.223709165755   0.113966526175   0.311675268713  T T T
  0.556129110375   0.113963827008   0.311657441289  T T T
  0.890690686674   0.115528202419   0.313076231270  T T T
  0.223666045872   0.446749349688   0.311447769830  T T T
  0.556090733063   0.446414543250   0.310365943667  T T T
  0.888853464147   0.446695394390   0.311410976762  T T T
  0.222962780210   0.779993936850   0.309889994056  T T T
  0.554023697694   0.778266950627   0.313963724355  T T T
  0.890024379074   0.778288243678   0.313945256621  T T T
  0.001178758107   0.002635962452   0.415844142452  T T T
  0.333791184820   0.002110086103   0.413988555130  T T T
  0.666973921290   0.002649396286   0.415871333874  T T T
  0.996796027848   0.328271502242   0.417486375060  T T T
  0.329724669708   0.331280275101   0.419186627102  T T T
  0.666909307742   0.331436273457   0.419187954207  T T T
  0.002988200370   0.674598271221   0.415955454881  T T T
  0.337360820704   0.674781439091   0.416077230463  T T T
  0.669503487669   0.673605896219   0.419561276297  T T T
