H N O Rh
1.0
  8.000000000000   0.000000000000   0.000000000000
 -4.000000000000   6.930000000000   0.000000000000
  0.000000000000   0.000000000000  20.891500000000
H N O Rh
  2   1   1  36
Selective dynamics
Direct
  0.140115462552   0.550982759442   0.534185974508  T T T
  0.550295178033   0.450254008805   0.527529209140  T T T
  0.541238536930   0.459528773708   0.479907257900  T T T
  0.168150868178   0.570491376633   0.491522395240  T T T
  0.001180456286   0.002313751637   0.105590696449  T T T
  0.334546597775   0.002299569640   0.105590831570  T T T
  0.667754686390   0.002254886023   0.105608938911  T T T
  0.001231408907   0.335683136588   0.105595167709  T T T
  0.334529333430   0.335628873632   0.105593597614  T T T
  0.667785178556   0.335563044681   0.105625486810  T T T
  0.001189544051   0.668923791971   0.105587116880  T T T
  0.334481212526   0.668909241150   0.105622880049  T T T
  0.667722645248   0.668843115805   0.105605377040  T T T
  0.111062207030   0.222894903860   0.209646329792  T T T
  0.444669621649   0.223449275967   0.209273845878  T T T
  0.778440002623   0.223185222763   0.209515973943  T T T
  0.111454522175   0.556674852545   0.208645060978  T T T
  0.446033924928   0.558645656979   0.209559013627  T T T
  0.779129936030   0.558926613085   0.209651872710  T T T
  0.110712694343   0.890719093206   0.208355486674  T T T
  0.446400809482   0.890808983899   0.208833935103  T T T
  0.778610593421   0.890355862674   0.208217925311  T T T
  0.223424423235   0.113766896372   0.311986549049  T T T
  0.556064663070   0.113430532604   0.311607434201  T T T
  0.890317057347   0.114696429693   0.312741334075  T T T
  0.223513914124   0.446258912017   0.311503680155  T T T
  0.556043911614   0.446170631609   0.310575118028  T T T
  0.888969955282   0.446352322807   0.311431724333  T T T
  0.222891002408   0.779586186267   0.310453962707  T T T
  0.554419702430   0.778109560742   0.313487845157  T T T
  0.889488386871   0.778206396731   0.313832584934  T T T
  0.000839640292   0.002334481162   0.415858717139  T T T
  0.333620246703   0.001823440654   0.414248831128  T T T
  0.667394105142   0.002525813753   0.415734029496  T T T
  0.997457135354   0.329259950102   0.417113193476  T T T
  0.331236316271   0.331131935263   0.419272217243  T T T
  0.667785425655   0.331244160938   0.418418300891  T T T
  0.002377953807   0.672913615863   0.415851080033  T T T
  0.336038778209   0.674741961399   0.415959165906  T T T
  0.668904575774   0.671742983962   0.419706681997  T T T
