H N O Rh
1.0
  8.000000000000   0.000000000000   0.000000000000
 -4.000000000000   6.930000000000   0.000000000000
  0.000000000000   0.000000000000  20.891500000000
H N O Rh
  2   1   1  36
Selective dynamics
Direct
  0.163644494539   0.535472267873   0.533147907095  T T T
  0.546413003720   0.455743138676   0.528698580681  T T T
  0.526937283459   0.472578004640   0.483156743318  T T T
  0.223801135058   0.582256854454   0.498197714689  T T T
  0.000934834784   0.001796500596   0.105592388252  T T T
  0.334300976273   0.001782318599   0.105592523373  T T T
  0.667509064888   0.001737634982   0.105610630714  T T T
  0.000985787405   0.335165885547   0.105596859512  T T T
  0.334283711928   0.335111622591   0.105595289417  T T T
  0.667539557054   0.335045793640   0.105627178613  T T T
  0.000943922549   0.668406540930   0.105588808683  T T T
  0.334235591024   0.668391990109   0.105624571852  T T T
  0.667477023746   0.668325864764   0.105607068843  T T T
  0.111182592918   0.222475151723   0.209654296326  T T T
  0.444361440144   0.222981645113   0.209402680900  T T T
  0.778324123444   0.222996428565   0.209402882742  T T T
  0.111496681801   0.556562341973   0.208860131074  T T T
  0.445692242846   0.557811465100   0.209480169827  T T T
  0.779064994047   0.558401854891   0.209678437397  T T T
  0.111001208594   0.890150562489   0.208062875635  T T T
  0.445811572130   0.890267233107   0.209007311374  T T T
  0.778734272726   0.889940913824   0.208577965485  T T T
  0.223138346062   0.113569887116   0.312284771668  T T T
  0.555989908163   0.112899394571   0.311551998431  T T T
  0.889969242052   0.113865877183   0.312406462921  T T T
  0.223349576501   0.445785244949   0.311562212042  T T T
  0.555996325352   0.445952812604   0.310780623373  T T T
  0.889091531348   0.446042375784   0.311419419336  T T T
  0.222816125327   0.779190031007   0.310996898393  T T T
  0.554830938504   0.777972733858   0.313013326243  T T T
  0.888977554599   0.778160158689   0.313724100029  T T T
  0.000528260186   0.002080802614   0.415869687659  T T T
  0.333481703756   0.001544915767   0.414504237394  T T T
  0.667785820771   0.002401016053   0.415614015679  T T T
  0.997841295833   0.329938125377   0.416679901006  T T T
  0.332865359059   0.331091115101   0.419395899053  T T T
  0.668901917833   0.330713847092   0.417513448957  T T T
  0.001630558286   0.671357284833   0.415705674666  T T T
  0.334320392632   0.674484180336   0.415935954251  T T T
  0.668263848549   0.669807040470   0.419862448540  T T T
