H N O Rh
1.0
  8.000000000000   0.000000000000   0.000000000000
 -4.000000000000   6.930000000000   0.000000000000
  0.000000000000   0.000000000000  20.891500000000
H N O Rh
  2   1   1  36
Selective dynamics
Direct
  0.187404500354   0.520407791638   0.531330697867  T T T
  0.542573624120   0.461171676544   0.529900735530  T T T
  0.512938776101   0.485388908055   0.486261916104  T T T
  0.278255152675   0.593713453408   0.505511300734  T T T
  0.000689213281   0.001279249554   0.105594080054  T T T
  0.334055354770   0.001265067557   0.105594215175  T T T
  0.667263443385   0.001220383940   0.105612322516  T T T
  0.000740165902   0.334648634505   0.105598551314  T T T
  0.334038090425   0.334594371549   0.105596981219  T T T
  0.667293935551   0.334528542598   0.105628870415  T T T
  0.000698301046   0.667889289888   0.105590500485  T T T
  0.333989969521   0.667874739067   0.105626263654  T T T
  0.667231402243   0.667808613722   0.105608760645  T T T
  0.111305017562   0.222065308860   0.209663291441  T T T
  0.444053386188   0.222514437129   0.209529744283  T T T
  0.778209659346   0.222806988420   0.209290067897  T T T
  0.111541860317   0.556454378399   0.209073418708  T T T
  0.445351425981   0.556988201372   0.209402294171  T T T
  0.779001137806   0.557884254007   0.209704536605  T T T
  0.111288433556   0.889587485654   0.207770847357  T T T
  0.445232067144   0.889730235035   0.209179813601  T T T
  0.778860488681   0.889526640274   0.208932883603  T T T
  0.222856956868   0.113370905826   0.312578925738  T T T
  0.555912464475   0.112370977733   0.311497891467  T T T
  0.889623433999   0.113047771368   0.312076601145  T T T
  0.223193501389   0.445318796890   0.311619121092  T T T
  0.555946648087   0.445736117602   0.310983451715  T T T
  0.889216353866   0.445732029448   0.311412169518  T T T
  0.222736583420   0.778811023127   0.311522937079  T T T
  0.555238928009   0.777843683525   0.312550345588  T T T
  0.888475490173   0.778104136540   0.313621594316  T T T
  0.000219088330   0.001827915062   0.415879521020  T T T
  0.333346348754   0.001264343045   0.414756213472  T T T
  0.668181210085   0.002285011497   0.415496167083  T T T
  0.998231071938   0.330663329693   0.416257801479  T T T
  0.334482032910   0.331065948407   0.419524428172  T T T
  0.669945368388   0.330273458534   0.416654352173  T T T
  0.000976222862   0.669772717682   0.415592311197  T T T
  0.332609096135   0.674135366031   0.415965996749  T T T
  0.667589764873   0.667877675628   0.420032995260  T T T
